column=9;
row=9;
left=[0, 4, 0, 1, 4, 0, 2, 4, 3];
right=[5, 1, 3, 4, 0, 4, 4, 3, 0];
top=[2, 0, 2, 0, 0, 0, 0, 3, 2];
bottom=[0, 3, 3, 3, 1, 0, 2, 0, 0];
Board=[|0,0,8,6,1,0,3,0,4|0,0,0,0,0,4,1,0,9|0,3,4,0,0,8,2,0,7|9,6,0,0,4,7,8,0,1|4,2,7,0,8,3,5,9,6|3,8,0,0,0,0,0,4,0|8,0,9,3,0,0,0,0,5|5,0,6,0,0,1,0,0,3|0,0,0,4,9,5,0,0,8|]